c
c Renamed file of cm162a.cnf 
c Variables are renamed according to left2right.ord 
c
c Date: Thu Apr 29 14:49:13 PDT 2004 by (jinbo)
c Host: Linux solution 2.4.18-4smp #1 SMP Thu May 2 18:32:34 EDT 2002 i686 unknown
c
c Copyright (c) 2001 Fadi A. Aloul.
c
p cnf 73 173
-11 -13 0
-16 -13 0
13 11 16 0
-13 14 0
-19 -15 0
-16 -15 0
15 19 16 0
-15 14 0
-11 -12 0
-20 -12 0
12 11 20 0
-12 14 0
-19 -18 0
-20 -18 0
18 19 20 0
-18 14 0
-14 13 15 12 18 0
-32 -33 0
-34 -33 0
33 32 34 0
-33 30 0
-19 -31 0
-34 -31 0
31 19 34 0
-31 30 0
-32 -29 0
-20 -29 0
29 32 20 0
-29 30 0
-19 -22 0
-20 -22 0
22 19 20 0
-22 30 0
-30 33 31 29 22 0
-26 -27 0
-28 -27 0
27 26 28 0
-27 24 0
-19 -25 0
-28 -25 0
25 19 28 0
-25 24 0
-26 -23 0
-20 -23 0
23 26 20 0
-23 24 0
-19 -21 0
-20 -21 0
21 19 20 0
-21 24 0
-24 27 25 23 21 0
-7 -6 0
-5 -6 0
6 7 5 0
-6 9 0
-19 -10 0
-5 -10 0
10 19 5 0
-10 9 0
-7 -8 0
-20 -8 0
8 7 20 0
-8 9 0
-19 -17 0
-20 -17 0
17 19 20 0
-17 9 0
-9 6 10 8 17 0
-69 -68 0
66 -68 0
68 69 -66 0
-68 67 0
-67 68 0
-55 -50 0
-52 -50 0
50 55 52 0
-50 19 0
-19 50 0
-49 -48 0
46 -48 0
48 49 -46 0
-48 16 0
49 -47 0
-46 -47 0
47 -49 46 0
-47 16 0
-16 48 47 0
-59 -51 0
-52 -51 0
51 59 52 0
-51 20 0
-20 51 0
43 -41 0
42 -41 0
41 -43 -42 0
-41 34 0
-43 -40 0
-42 -40 0
40 43 42 0
-40 34 0
-34 41 40 0
57 -56 0
56 -57 0
-56 55 0
-62 -61 0
61 62 0
-61 55 0
-55 56 61 0
-57 -58 0
58 57 0
-58 59 0
-62 -60 0
60 62 0
-60 59 0
-59 58 60 0
-64 -63 0
63 64 0
-63 49 0
-57 -54 0
54 57 0
-54 49 0
-66 -65 0
65 66 0
-65 49 0
-49 63 54 65 0
-46 -45 0
-49 -45 0
45 46 49 0
-45 43 0
-43 45 0
-71 -70 0
70 71 0
-70 69 0
-73 -72 0
72 73 0
-72 69 0
-69 70 72 0
-69 -53 0
-49 -53 0
53 69 49 0
-53 52 0
-52 53 0
38 -35 0
37 -35 0
35 -38 -37 0
-35 28 0
-38 -36 0
-37 -36 0
36 38 37 0
-36 28 0
-28 35 36 0
3 -2 0
1 -2 0
2 -3 -1 0
-2 5 0
-3 -4 0
-1 -4 0
4 3 1 0
-4 5 0
-5 2 4 0
-49 -44 0
-46 -44 0
-42 -44 0
44 49 46 42 0
-44 38 0
-38 44 0
-37 -39 0
-49 -39 0
-46 -39 0
-42 -39 0
39 37 49 46 42 0
-39 3 0
-3 39 0
